25 2
25 200
10
30
10
10
10
20
20
20
10
10
10
20
30
10
40
40
20
20
10
10
20
20
10
10
40
40 50 0 1236 0 0
45 68 850 1030 90 2
45 70 758 938 90 1
42 66 16 196 90 1
42 68 665 845 90 2
42 65 15 195 90 2
40 69 572 752 90 2
40 66 108 288 90 3
38 68 200 380 90 3
38 70 480 660 90 1
35 66 294 474 90 3
35 69 387 567 90 1
25 85 597 777 90 3
22 75 30 210 90 2
22 85 504 684 90 3
20 80 317 497 90 3
20 85 412 592 90 1
18 75 34 214 90 2
15 75 127 307 90 3
15 80 222 402 90 1
30 50 10 190 90 1
30 52 850 1030 90 2
28 52 758 938 90 2
28 55 665 845 90 2
25 50 15 195 90 1
25 52 107 287 90 1
20 50 0 1236 45 4
29 81 0 1236 45 4
0 1
0 0
0 0
0 1
0 1
0 1
0 1
0 1
0 0
0 1
0 0
0 1
0 1
0 1
0 1
0 0
0 1
0 1
0 0
0 0
1 0
1 0
1 0
0 0
0 0
